(define-fun
  h5
  ((x Int)) Int (+ 1 (+ (* (+ 2 x) x) x)))
(define-fun
  h4
  ((x Int) (y Int)) Int y)
(define-fun
  h2
  ((x Int)) Int x)
(define-fun
  g3
  ((x Int)) Int (+ 1 x))
(define-fun
  g2
  ((x Int) (y Int)) Int y)
(define-fun
  g1
  ((x Int) (y Int)) Int y)
(define-fun
  g0
  ((x Int)) Int (+ 2 x))
(define-fun
  f5
  ((x Int)) Int (* x x))
(define-fun-rec
  u5
  ((x Int) (y Int)) Int (ite (<= x 0) y (f5 (u5 (- x 1) y))))
(define-fun
  v5
  ((x Int)) Int (u5 1 (h5 x)))
(define-fun
  f4
  ((x Int)) Int (* (div (v5 x) (+ 1 2)) (+ 1 x)))
(define-fun-rec
  u4
  ((x Int) (y Int)) Int (ite (<= x 0) y (f4 (u4 (- x 1) y))))
(define-fun
  v4
  ((x Int) (y Int)) Int (u4 1 y))
(define-fun
  f3
  ((x Int) (y Int)) Int (+ (v4 x y) x))
(define-fun-rec
  u3
  ((x Int) (y Int)) Int (ite (<= x 0) y (f3 (u3 (- x 1) y) x)))
(define-fun
  v3
  ((x Int)) Int (u3 (g3 x) 0))
(define-fun
  f2
  ((x Int) (y Int)) Int (+ (- (* y y) y) x))
(define-fun-rec
  u2
  ((x Int) (y Int)) Int (ite (<= x 0) y (f2 (u2 (- x 1) y) x)))
(define-fun
  v2
  ((x Int) (y Int)) Int (u2 y x))
(define-fun-rec
  u1
  ((x Int) (y Int)) Int (ite (<= x 0) y (v2 (u1 (- x 1) y) x)))
(define-fun
  v1
  ((x Int) (y Int)) Int (u1 y 0))
(define-fun
  f0
  ((x Int) (y Int)) Int (+ (* (v1 x y) y) x))
(define-fun-rec
  u0
  ((x Int) (y Int)) Int (ite (<= x 0) y (f0 (u0 (- x 1) y) x)))
(define-fun
  v0
  ((x Int)) Int (u0 (g0 x) 0))
(define-fun
  small
  ((x Int)) Int (* (* (v0 x) 2) 2))
(assert-not
  (forall ((c Int)) (or (not (>= c 0)) (= (small c) (v3 c)))))
